p cnf 12 50 
-3 5 8 0
-10 -7 11 0
-9 6 10 0
2 9 8 0
-6 11 7 0
5 -1 -6 0
-1 9 -4 0
7 9 -1 0
11 10 -3 0
-1 -7 4 0
-11 8 10 0
1 8 12 0
-12 3 -10 0
4 1 -2 0
-2 3 10 0
7 -5 -6 0
9 4 -12 0
5 -12 9 0
-7 3 10 0
-9 1 -4 0
-7 -5 10 0
3 6 7 0
-7 3 8 0
10 7 -12 0
-2 -7 11 0
12 -10 -6 0
-1 11 5 0
8 12 6 0
1 4 12 0
-12 -1 4 0
-8 7 -3 0
-11 -7 -1 0
-7 -10 1 0
-11 -6 -7 0
-4 -9 1 0
-9 -7 3 0
8 -7 -5 0
-6 3 -10 0
1 -9 -12 0
-10 9 7 0
10 9 6 0
9 -11 -10 0
4 -3 -7 0
8 -2 6 0
6 1 -8 0
-3 8 4 0
-2 -8 -3 0
8 9 6 0
10 2 7 0
-8 6 -5 0
